NAME: tsp25_15
COMMENT: 25-tsp problem (Padberg/Rinaldi)
TYPE: TSP
DIMENSION: 25
EDGE_WEIGHT_TYPE : EUC_2D
NODE_COORD_SECTION
1 28 3
2 20 14
3 4 23
4 26 7
5 11 28
6 33 4
7 20 15
8 17 38
9 3 19
10 6 28
11 31 17
12 3 4
13 25 7
14 31 6
15 13 38
16 17 21
17 40 7
18 25 26
19 21 29
20 34 5
21 12 39
22 27 36
23 12 2
24 17 11
25 12 34
